c *********************************
c * Circuit generated by BenCGen
c *
c * RippleCarryAdder_81_81_81_InOutT
c *
c * Ports with 1 gate(s): 1
c * Ports with 2 gate(s): 406
c * Total gates: 407
c *********************************
p cnf 569 1382
1 246 0
-1 -246 0
1 -245 0
246 -245 0
-1 -246 245 0
1 82 -248 0
-1 82 248 0
1 -82 248 0
-1 -82 -248 0
248 245 -163 0
-248 245 163 0
248 -245 163 0
-248 -245 -163 0
245 -249 0
248 -249 0
-245 -248 249 0
82 -250 0
1 -250 0
-82 -1 250 0
-249 247 0
-250 247 0
249 250 -247 0
2 83 -252 0
-2 83 252 0
2 -83 252 0
-2 -83 -252 0
252 247 -164 0
-252 247 164 0
252 -247 164 0
-252 -247 -164 0
247 -253 0
252 -253 0
-247 -252 253 0
83 -254 0
2 -254 0
-83 -2 254 0
-253 251 0
-254 251 0
253 254 -251 0
3 84 -256 0
-3 84 256 0
3 -84 256 0
-3 -84 -256 0
256 251 -165 0
-256 251 165 0
256 -251 165 0
-256 -251 -165 0
251 -257 0
256 -257 0
-251 -256 257 0
84 -258 0
3 -258 0
-84 -3 258 0
-257 255 0
-258 255 0
257 258 -255 0
4 85 -260 0
-4 85 260 0
4 -85 260 0
-4 -85 -260 0
260 255 -166 0
-260 255 166 0
260 -255 166 0
-260 -255 -166 0
255 -261 0
260 -261 0
-255 -260 261 0
85 -262 0
4 -262 0
-85 -4 262 0
-261 259 0
-262 259 0
261 262 -259 0
5 86 -264 0
-5 86 264 0
5 -86 264 0
-5 -86 -264 0
264 259 -167 0
-264 259 167 0
264 -259 167 0
-264 -259 -167 0
259 -265 0
264 -265 0
-259 -264 265 0
86 -266 0
5 -266 0
-86 -5 266 0
-265 263 0
-266 263 0
265 266 -263 0
6 87 -268 0
-6 87 268 0
6 -87 268 0
-6 -87 -268 0
268 263 -168 0
-268 263 168 0
268 -263 168 0
-268 -263 -168 0
263 -269 0
268 -269 0
-263 -268 269 0
87 -270 0
6 -270 0
-87 -6 270 0
-269 267 0
-270 267 0
269 270 -267 0
7 88 -272 0
-7 88 272 0
7 -88 272 0
-7 -88 -272 0
272 267 -169 0
-272 267 169 0
272 -267 169 0
-272 -267 -169 0
267 -273 0
272 -273 0
-267 -272 273 0
88 -274 0
7 -274 0
-88 -7 274 0
-273 271 0
-274 271 0
273 274 -271 0
8 89 -276 0
-8 89 276 0
8 -89 276 0
-8 -89 -276 0
276 271 -170 0
-276 271 170 0
276 -271 170 0
-276 -271 -170 0
271 -277 0
276 -277 0
-271 -276 277 0
89 -278 0
8 -278 0
-89 -8 278 0
-277 275 0
-278 275 0
277 278 -275 0
9 90 -280 0
-9 90 280 0
9 -90 280 0
-9 -90 -280 0
280 275 -171 0
-280 275 171 0
280 -275 171 0
-280 -275 -171 0
275 -281 0
280 -281 0
-275 -280 281 0
90 -282 0
9 -282 0
-90 -9 282 0
-281 279 0
-282 279 0
281 282 -279 0
10 91 -284 0
-10 91 284 0
10 -91 284 0
-10 -91 -284 0
284 279 -172 0
-284 279 172 0
284 -279 172 0
-284 -279 -172 0
279 -285 0
284 -285 0
-279 -284 285 0
91 -286 0
10 -286 0
-91 -10 286 0
-285 283 0
-286 283 0
285 286 -283 0
11 92 -288 0
-11 92 288 0
11 -92 288 0
-11 -92 -288 0
288 283 -173 0
-288 283 173 0
288 -283 173 0
-288 -283 -173 0
283 -289 0
288 -289 0
-283 -288 289 0
92 -290 0
11 -290 0
-92 -11 290 0
-289 287 0
-290 287 0
289 290 -287 0
12 93 -292 0
-12 93 292 0
12 -93 292 0
-12 -93 -292 0
292 287 -174 0
-292 287 174 0
292 -287 174 0
-292 -287 -174 0
287 -293 0
292 -293 0
-287 -292 293 0
93 -294 0
12 -294 0
-93 -12 294 0
-293 291 0
-294 291 0
293 294 -291 0
13 94 -296 0
-13 94 296 0
13 -94 296 0
-13 -94 -296 0
296 291 -175 0
-296 291 175 0
296 -291 175 0
-296 -291 -175 0
291 -297 0
296 -297 0
-291 -296 297 0
94 -298 0
13 -298 0
-94 -13 298 0
-297 295 0
-298 295 0
297 298 -295 0
14 95 -300 0
-14 95 300 0
14 -95 300 0
-14 -95 -300 0
300 295 -176 0
-300 295 176 0
300 -295 176 0
-300 -295 -176 0
295 -301 0
300 -301 0
-295 -300 301 0
95 -302 0
14 -302 0
-95 -14 302 0
-301 299 0
-302 299 0
301 302 -299 0
15 96 -304 0
-15 96 304 0
15 -96 304 0
-15 -96 -304 0
304 299 -177 0
-304 299 177 0
304 -299 177 0
-304 -299 -177 0
299 -305 0
304 -305 0
-299 -304 305 0
96 -306 0
15 -306 0
-96 -15 306 0
-305 303 0
-306 303 0
305 306 -303 0
16 97 -308 0
-16 97 308 0
16 -97 308 0
-16 -97 -308 0
308 303 -178 0
-308 303 178 0
308 -303 178 0
-308 -303 -178 0
303 -309 0
308 -309 0
-303 -308 309 0
97 -310 0
16 -310 0
-97 -16 310 0
-309 307 0
-310 307 0
309 310 -307 0
17 98 -312 0
-17 98 312 0
17 -98 312 0
-17 -98 -312 0
312 307 -179 0
-312 307 179 0
312 -307 179 0
-312 -307 -179 0
307 -313 0
312 -313 0
-307 -312 313 0
98 -314 0
17 -314 0
-98 -17 314 0
-313 311 0
-314 311 0
313 314 -311 0
18 99 -316 0
-18 99 316 0
18 -99 316 0
-18 -99 -316 0
316 311 -180 0
-316 311 180 0
316 -311 180 0
-316 -311 -180 0
311 -317 0
316 -317 0
-311 -316 317 0
99 -318 0
18 -318 0
-99 -18 318 0
-317 315 0
-318 315 0
317 318 -315 0
19 100 -320 0
-19 100 320 0
19 -100 320 0
-19 -100 -320 0
320 315 -181 0
-320 315 181 0
320 -315 181 0
-320 -315 -181 0
315 -321 0
320 -321 0
-315 -320 321 0
100 -322 0
19 -322 0
-100 -19 322 0
-321 319 0
-322 319 0
321 322 -319 0
20 101 -324 0
-20 101 324 0
20 -101 324 0
-20 -101 -324 0
324 319 -182 0
-324 319 182 0
324 -319 182 0
-324 -319 -182 0
319 -325 0
324 -325 0
-319 -324 325 0
101 -326 0
20 -326 0
-101 -20 326 0
-325 323 0
-326 323 0
325 326 -323 0
21 102 -328 0
-21 102 328 0
21 -102 328 0
-21 -102 -328 0
328 323 -183 0
-328 323 183 0
328 -323 183 0
-328 -323 -183 0
323 -329 0
328 -329 0
-323 -328 329 0
102 -330 0
21 -330 0
-102 -21 330 0
-329 327 0
-330 327 0
329 330 -327 0
22 103 -332 0
-22 103 332 0
22 -103 332 0
-22 -103 -332 0
332 327 -184 0
-332 327 184 0
332 -327 184 0
-332 -327 -184 0
327 -333 0
332 -333 0
-327 -332 333 0
103 -334 0
22 -334 0
-103 -22 334 0
-333 331 0
-334 331 0
333 334 -331 0
23 104 -336 0
-23 104 336 0
23 -104 336 0
-23 -104 -336 0
336 331 -185 0
-336 331 185 0
336 -331 185 0
-336 -331 -185 0
331 -337 0
336 -337 0
-331 -336 337 0
104 -338 0
23 -338 0
-104 -23 338 0
-337 335 0
-338 335 0
337 338 -335 0
24 105 -340 0
-24 105 340 0
24 -105 340 0
-24 -105 -340 0
340 335 -186 0
-340 335 186 0
340 -335 186 0
-340 -335 -186 0
335 -341 0
340 -341 0
-335 -340 341 0
105 -342 0
24 -342 0
-105 -24 342 0
-341 339 0
-342 339 0
341 342 -339 0
25 106 -344 0
-25 106 344 0
25 -106 344 0
-25 -106 -344 0
344 339 -187 0
-344 339 187 0
344 -339 187 0
-344 -339 -187 0
339 -345 0
344 -345 0
-339 -344 345 0
106 -346 0
25 -346 0
-106 -25 346 0
-345 343 0
-346 343 0
345 346 -343 0
26 107 -348 0
-26 107 348 0
26 -107 348 0
-26 -107 -348 0
348 343 -188 0
-348 343 188 0
348 -343 188 0
-348 -343 -188 0
343 -349 0
348 -349 0
-343 -348 349 0
107 -350 0
26 -350 0
-107 -26 350 0
-349 347 0
-350 347 0
349 350 -347 0
27 108 -352 0
-27 108 352 0
27 -108 352 0
-27 -108 -352 0
352 347 -189 0
-352 347 189 0
352 -347 189 0
-352 -347 -189 0
347 -353 0
352 -353 0
-347 -352 353 0
108 -354 0
27 -354 0
-108 -27 354 0
-353 351 0
-354 351 0
353 354 -351 0
28 109 -356 0
-28 109 356 0
28 -109 356 0
-28 -109 -356 0
356 351 -190 0
-356 351 190 0
356 -351 190 0
-356 -351 -190 0
351 -357 0
356 -357 0
-351 -356 357 0
109 -358 0
28 -358 0
-109 -28 358 0
-357 355 0
-358 355 0
357 358 -355 0
29 110 -360 0
-29 110 360 0
29 -110 360 0
-29 -110 -360 0
360 355 -191 0
-360 355 191 0
360 -355 191 0
-360 -355 -191 0
355 -361 0
360 -361 0
-355 -360 361 0
110 -362 0
29 -362 0
-110 -29 362 0
-361 359 0
-362 359 0
361 362 -359 0
30 111 -364 0
-30 111 364 0
30 -111 364 0
-30 -111 -364 0
364 359 -192 0
-364 359 192 0
364 -359 192 0
-364 -359 -192 0
359 -365 0
364 -365 0
-359 -364 365 0
111 -366 0
30 -366 0
-111 -30 366 0
-365 363 0
-366 363 0
365 366 -363 0
31 112 -368 0
-31 112 368 0
31 -112 368 0
-31 -112 -368 0
368 363 -193 0
-368 363 193 0
368 -363 193 0
-368 -363 -193 0
363 -369 0
368 -369 0
-363 -368 369 0
112 -370 0
31 -370 0
-112 -31 370 0
-369 367 0
-370 367 0
369 370 -367 0
32 113 -372 0
-32 113 372 0
32 -113 372 0
-32 -113 -372 0
372 367 -194 0
-372 367 194 0
372 -367 194 0
-372 -367 -194 0
367 -373 0
372 -373 0
-367 -372 373 0
113 -374 0
32 -374 0
-113 -32 374 0
-373 371 0
-374 371 0
373 374 -371 0
33 114 -376 0
-33 114 376 0
33 -114 376 0
-33 -114 -376 0
376 371 -195 0
-376 371 195 0
376 -371 195 0
-376 -371 -195 0
371 -377 0
376 -377 0
-371 -376 377 0
114 -378 0
33 -378 0
-114 -33 378 0
-377 375 0
-378 375 0
377 378 -375 0
34 115 -380 0
-34 115 380 0
34 -115 380 0
-34 -115 -380 0
380 375 -196 0
-380 375 196 0
380 -375 196 0
-380 -375 -196 0
375 -381 0
380 -381 0
-375 -380 381 0
115 -382 0
34 -382 0
-115 -34 382 0
-381 379 0
-382 379 0
381 382 -379 0
35 116 -384 0
-35 116 384 0
35 -116 384 0
-35 -116 -384 0
384 379 -197 0
-384 379 197 0
384 -379 197 0
-384 -379 -197 0
379 -385 0
384 -385 0
-379 -384 385 0
116 -386 0
35 -386 0
-116 -35 386 0
-385 383 0
-386 383 0
385 386 -383 0
36 117 -388 0
-36 117 388 0
36 -117 388 0
-36 -117 -388 0
388 383 -198 0
-388 383 198 0
388 -383 198 0
-388 -383 -198 0
383 -389 0
388 -389 0
-383 -388 389 0
117 -390 0
36 -390 0
-117 -36 390 0
-389 387 0
-390 387 0
389 390 -387 0
37 118 -392 0
-37 118 392 0
37 -118 392 0
-37 -118 -392 0
392 387 -199 0
-392 387 199 0
392 -387 199 0
-392 -387 -199 0
387 -393 0
392 -393 0
-387 -392 393 0
118 -394 0
37 -394 0
-118 -37 394 0
-393 391 0
-394 391 0
393 394 -391 0
38 119 -396 0
-38 119 396 0
38 -119 396 0
-38 -119 -396 0
396 391 -200 0
-396 391 200 0
396 -391 200 0
-396 -391 -200 0
391 -397 0
396 -397 0
-391 -396 397 0
119 -398 0
38 -398 0
-119 -38 398 0
-397 395 0
-398 395 0
397 398 -395 0
39 120 -400 0
-39 120 400 0
39 -120 400 0
-39 -120 -400 0
400 395 -201 0
-400 395 201 0
400 -395 201 0
-400 -395 -201 0
395 -401 0
400 -401 0
-395 -400 401 0
120 -402 0
39 -402 0
-120 -39 402 0
-401 399 0
-402 399 0
401 402 -399 0
40 121 -404 0
-40 121 404 0
40 -121 404 0
-40 -121 -404 0
404 399 -202 0
-404 399 202 0
404 -399 202 0
-404 -399 -202 0
399 -405 0
404 -405 0
-399 -404 405 0
121 -406 0
40 -406 0
-121 -40 406 0
-405 403 0
-406 403 0
405 406 -403 0
41 122 -408 0
-41 122 408 0
41 -122 408 0
-41 -122 -408 0
408 403 -203 0
-408 403 203 0
408 -403 203 0
-408 -403 -203 0
403 -409 0
408 -409 0
-403 -408 409 0
122 -410 0
41 -410 0
-122 -41 410 0
-409 407 0
-410 407 0
409 410 -407 0
42 123 -412 0
-42 123 412 0
42 -123 412 0
-42 -123 -412 0
412 407 -204 0
-412 407 204 0
412 -407 204 0
-412 -407 -204 0
407 -413 0
412 -413 0
-407 -412 413 0
123 -414 0
42 -414 0
-123 -42 414 0
-413 411 0
-414 411 0
413 414 -411 0
43 124 -416 0
-43 124 416 0
43 -124 416 0
-43 -124 -416 0
416 411 -205 0
-416 411 205 0
416 -411 205 0
-416 -411 -205 0
411 -417 0
416 -417 0
-411 -416 417 0
124 -418 0
43 -418 0
-124 -43 418 0
-417 415 0
-418 415 0
417 418 -415 0
44 125 -420 0
-44 125 420 0
44 -125 420 0
-44 -125 -420 0
420 415 -206 0
-420 415 206 0
420 -415 206 0
-420 -415 -206 0
415 -421 0
420 -421 0
-415 -420 421 0
125 -422 0
44 -422 0
-125 -44 422 0
-421 419 0
-422 419 0
421 422 -419 0
45 126 -424 0
-45 126 424 0
45 -126 424 0
-45 -126 -424 0
424 419 -207 0
-424 419 207 0
424 -419 207 0
-424 -419 -207 0
419 -425 0
424 -425 0
-419 -424 425 0
126 -426 0
45 -426 0
-126 -45 426 0
-425 423 0
-426 423 0
425 426 -423 0
46 127 -428 0
-46 127 428 0
46 -127 428 0
-46 -127 -428 0
428 423 -208 0
-428 423 208 0
428 -423 208 0
-428 -423 -208 0
423 -429 0
428 -429 0
-423 -428 429 0
127 -430 0
46 -430 0
-127 -46 430 0
-429 427 0
-430 427 0
429 430 -427 0
47 128 -432 0
-47 128 432 0
47 -128 432 0
-47 -128 -432 0
432 427 -209 0
-432 427 209 0
432 -427 209 0
-432 -427 -209 0
427 -433 0
432 -433 0
-427 -432 433 0
128 -434 0
47 -434 0
-128 -47 434 0
-433 431 0
-434 431 0
433 434 -431 0
48 129 -436 0
-48 129 436 0
48 -129 436 0
-48 -129 -436 0
436 431 -210 0
-436 431 210 0
436 -431 210 0
-436 -431 -210 0
431 -437 0
436 -437 0
-431 -436 437 0
129 -438 0
48 -438 0
-129 -48 438 0
-437 435 0
-438 435 0
437 438 -435 0
49 130 -440 0
-49 130 440 0
49 -130 440 0
-49 -130 -440 0
440 435 -211 0
-440 435 211 0
440 -435 211 0
-440 -435 -211 0
435 -441 0
440 -441 0
-435 -440 441 0
130 -442 0
49 -442 0
-130 -49 442 0
-441 439 0
-442 439 0
441 442 -439 0
50 131 -444 0
-50 131 444 0
50 -131 444 0
-50 -131 -444 0
444 439 -212 0
-444 439 212 0
444 -439 212 0
-444 -439 -212 0
439 -445 0
444 -445 0
-439 -444 445 0
131 -446 0
50 -446 0
-131 -50 446 0
-445 443 0
-446 443 0
445 446 -443 0
51 132 -448 0
-51 132 448 0
51 -132 448 0
-51 -132 -448 0
448 443 -213 0
-448 443 213 0
448 -443 213 0
-448 -443 -213 0
443 -449 0
448 -449 0
-443 -448 449 0
132 -450 0
51 -450 0
-132 -51 450 0
-449 447 0
-450 447 0
449 450 -447 0
52 133 -452 0
-52 133 452 0
52 -133 452 0
-52 -133 -452 0
452 447 -214 0
-452 447 214 0
452 -447 214 0
-452 -447 -214 0
447 -453 0
452 -453 0
-447 -452 453 0
133 -454 0
52 -454 0
-133 -52 454 0
-453 451 0
-454 451 0
453 454 -451 0
53 134 -456 0
-53 134 456 0
53 -134 456 0
-53 -134 -456 0
456 451 -215 0
-456 451 215 0
456 -451 215 0
-456 -451 -215 0
451 -457 0
456 -457 0
-451 -456 457 0
134 -458 0
53 -458 0
-134 -53 458 0
-457 455 0
-458 455 0
457 458 -455 0
54 135 -460 0
-54 135 460 0
54 -135 460 0
-54 -135 -460 0
460 455 -216 0
-460 455 216 0
460 -455 216 0
-460 -455 -216 0
455 -461 0
460 -461 0
-455 -460 461 0
135 -462 0
54 -462 0
-135 -54 462 0
-461 459 0
-462 459 0
461 462 -459 0
55 136 -464 0
-55 136 464 0
55 -136 464 0
-55 -136 -464 0
464 459 -217 0
-464 459 217 0
464 -459 217 0
-464 -459 -217 0
459 -465 0
464 -465 0
-459 -464 465 0
136 -466 0
55 -466 0
-136 -55 466 0
-465 463 0
-466 463 0
465 466 -463 0
56 137 -468 0
-56 137 468 0
56 -137 468 0
-56 -137 -468 0
468 463 -218 0
-468 463 218 0
468 -463 218 0
-468 -463 -218 0
463 -469 0
468 -469 0
-463 -468 469 0
137 -470 0
56 -470 0
-137 -56 470 0
-469 467 0
-470 467 0
469 470 -467 0
57 138 -472 0
-57 138 472 0
57 -138 472 0
-57 -138 -472 0
472 467 -219 0
-472 467 219 0
472 -467 219 0
-472 -467 -219 0
467 -473 0
472 -473 0
-467 -472 473 0
138 -474 0
57 -474 0
-138 -57 474 0
-473 471 0
-474 471 0
473 474 -471 0
58 139 -476 0
-58 139 476 0
58 -139 476 0
-58 -139 -476 0
476 471 -220 0
-476 471 220 0
476 -471 220 0
-476 -471 -220 0
471 -477 0
476 -477 0
-471 -476 477 0
139 -478 0
58 -478 0
-139 -58 478 0
-477 475 0
-478 475 0
477 478 -475 0
59 140 -480 0
-59 140 480 0
59 -140 480 0
-59 -140 -480 0
480 475 -221 0
-480 475 221 0
480 -475 221 0
-480 -475 -221 0
475 -481 0
480 -481 0
-475 -480 481 0
140 -482 0
59 -482 0
-140 -59 482 0
-481 479 0
-482 479 0
481 482 -479 0
60 141 -484 0
-60 141 484 0
60 -141 484 0
-60 -141 -484 0
484 479 -222 0
-484 479 222 0
484 -479 222 0
-484 -479 -222 0
479 -485 0
484 -485 0
-479 -484 485 0
141 -486 0
60 -486 0
-141 -60 486 0
-485 483 0
-486 483 0
485 486 -483 0
61 142 -488 0
-61 142 488 0
61 -142 488 0
-61 -142 -488 0
488 483 -223 0
-488 483 223 0
488 -483 223 0
-488 -483 -223 0
483 -489 0
488 -489 0
-483 -488 489 0
142 -490 0
61 -490 0
-142 -61 490 0
-489 487 0
-490 487 0
489 490 -487 0
62 143 -492 0
-62 143 492 0
62 -143 492 0
-62 -143 -492 0
492 487 -224 0
-492 487 224 0
492 -487 224 0
-492 -487 -224 0
487 -493 0
492 -493 0
-487 -492 493 0
143 -494 0
62 -494 0
-143 -62 494 0
-493 491 0
-494 491 0
493 494 -491 0
63 144 -496 0
-63 144 496 0
63 -144 496 0
-63 -144 -496 0
496 491 -225 0
-496 491 225 0
496 -491 225 0
-496 -491 -225 0
491 -497 0
496 -497 0
-491 -496 497 0
144 -498 0
63 -498 0
-144 -63 498 0
-497 495 0
-498 495 0
497 498 -495 0
64 145 -500 0
-64 145 500 0
64 -145 500 0
-64 -145 -500 0
500 495 -226 0
-500 495 226 0
500 -495 226 0
-500 -495 -226 0
495 -501 0
500 -501 0
-495 -500 501 0
145 -502 0
64 -502 0
-145 -64 502 0
-501 499 0
-502 499 0
501 502 -499 0
65 146 -504 0
-65 146 504 0
65 -146 504 0
-65 -146 -504 0
504 499 -227 0
-504 499 227 0
504 -499 227 0
-504 -499 -227 0
499 -505 0
504 -505 0
-499 -504 505 0
146 -506 0
65 -506 0
-146 -65 506 0
-505 503 0
-506 503 0
505 506 -503 0
66 147 -508 0
-66 147 508 0
66 -147 508 0
-66 -147 -508 0
508 503 -228 0
-508 503 228 0
508 -503 228 0
-508 -503 -228 0
503 -509 0
508 -509 0
-503 -508 509 0
147 -510 0
66 -510 0
-147 -66 510 0
-509 507 0
-510 507 0
509 510 -507 0
67 148 -512 0
-67 148 512 0
67 -148 512 0
-67 -148 -512 0
512 507 -229 0
-512 507 229 0
512 -507 229 0
-512 -507 -229 0
507 -513 0
512 -513 0
-507 -512 513 0
148 -514 0
67 -514 0
-148 -67 514 0
-513 511 0
-514 511 0
513 514 -511 0
68 149 -516 0
-68 149 516 0
68 -149 516 0
-68 -149 -516 0
516 511 -230 0
-516 511 230 0
516 -511 230 0
-516 -511 -230 0
511 -517 0
516 -517 0
-511 -516 517 0
149 -518 0
68 -518 0
-149 -68 518 0
-517 515 0
-518 515 0
517 518 -515 0
69 150 -520 0
-69 150 520 0
69 -150 520 0
-69 -150 -520 0
520 515 -231 0
-520 515 231 0
520 -515 231 0
-520 -515 -231 0
515 -521 0
520 -521 0
-515 -520 521 0
150 -522 0
69 -522 0
-150 -69 522 0
-521 519 0
-522 519 0
521 522 -519 0
70 151 -524 0
-70 151 524 0
70 -151 524 0
-70 -151 -524 0
524 519 -232 0
-524 519 232 0
524 -519 232 0
-524 -519 -232 0
519 -525 0
524 -525 0
-519 -524 525 0
151 -526 0
70 -526 0
-151 -70 526 0
-525 523 0
-526 523 0
525 526 -523 0
71 152 -528 0
-71 152 528 0
71 -152 528 0
-71 -152 -528 0
528 523 -233 0
-528 523 233 0
528 -523 233 0
-528 -523 -233 0
523 -529 0
528 -529 0
-523 -528 529 0
152 -530 0
71 -530 0
-152 -71 530 0
-529 527 0
-530 527 0
529 530 -527 0
72 153 -532 0
-72 153 532 0
72 -153 532 0
-72 -153 -532 0
532 527 -234 0
-532 527 234 0
532 -527 234 0
-532 -527 -234 0
527 -533 0
532 -533 0
-527 -532 533 0
153 -534 0
72 -534 0
-153 -72 534 0
-533 531 0
-534 531 0
533 534 -531 0
73 154 -536 0
-73 154 536 0
73 -154 536 0
-73 -154 -536 0
536 531 -235 0
-536 531 235 0
536 -531 235 0
-536 -531 -235 0
531 -537 0
536 -537 0
-531 -536 537 0
154 -538 0
73 -538 0
-154 -73 538 0
-537 535 0
-538 535 0
537 538 -535 0
74 155 -540 0
-74 155 540 0
74 -155 540 0
-74 -155 -540 0
540 535 -236 0
-540 535 236 0
540 -535 236 0
-540 -535 -236 0
535 -541 0
540 -541 0
-535 -540 541 0
155 -542 0
74 -542 0
-155 -74 542 0
-541 539 0
-542 539 0
541 542 -539 0
75 156 -544 0
-75 156 544 0
75 -156 544 0
-75 -156 -544 0
544 539 -237 0
-544 539 237 0
544 -539 237 0
-544 -539 -237 0
539 -545 0
544 -545 0
-539 -544 545 0
156 -546 0
75 -546 0
-156 -75 546 0
-545 543 0
-546 543 0
545 546 -543 0
76 157 -548 0
-76 157 548 0
76 -157 548 0
-76 -157 -548 0
548 543 -238 0
-548 543 238 0
548 -543 238 0
-548 -543 -238 0
543 -549 0
548 -549 0
-543 -548 549 0
157 -550 0
76 -550 0
-157 -76 550 0
-549 547 0
-550 547 0
549 550 -547 0
77 158 -552 0
-77 158 552 0
77 -158 552 0
-77 -158 -552 0
552 547 -239 0
-552 547 239 0
552 -547 239 0
-552 -547 -239 0
547 -553 0
552 -553 0
-547 -552 553 0
158 -554 0
77 -554 0
-158 -77 554 0
-553 551 0
-554 551 0
553 554 -551 0
78 159 -556 0
-78 159 556 0
78 -159 556 0
-78 -159 -556 0
556 551 -240 0
-556 551 240 0
556 -551 240 0
-556 -551 -240 0
551 -557 0
556 -557 0
-551 -556 557 0
159 -558 0
78 -558 0
-159 -78 558 0
-557 555 0
-558 555 0
557 558 -555 0
79 160 -560 0
-79 160 560 0
79 -160 560 0
-79 -160 -560 0
560 555 -241 0
-560 555 241 0
560 -555 241 0
-560 -555 -241 0
555 -561 0
560 -561 0
-555 -560 561 0
160 -562 0
79 -562 0
-160 -79 562 0
-561 559 0
-562 559 0
561 562 -559 0
80 161 -564 0
-80 161 564 0
80 -161 564 0
-80 -161 -564 0
564 559 -242 0
-564 559 242 0
564 -559 242 0
-564 -559 -242 0
559 -565 0
564 -565 0
-559 -564 565 0
161 -566 0
80 -566 0
-161 -80 566 0
-565 563 0
-566 563 0
565 566 -563 0
81 162 -567 0
-81 162 567 0
81 -162 567 0
-81 -162 -567 0
567 563 -243 0
-567 563 243 0
567 -563 243 0
-567 -563 -243 0
563 -568 0
567 -568 0
-563 -567 568 0
162 -569 0
81 -569 0
-162 -81 569 0
-568 244 0
-569 244 0
568 569 -244 0
